proyfinal/src/viki/013/experimentInOfficeAgust.take6.output/5e502ab6-adcd-49fd-b7e0-62bcb1b03a1d.als.dat
{'cnf.clauses': '118081',
 'cnf.totvars': '69608',
 'conflict literals': '39',
 'conflicts': '21',
 'decisions': '7941',
 'memused.mb': '14.78',
 'outcome': 'UNSAT',
 'propagations': '37159',
 'restarts': '1',
 'solver.msecs': 33,
 'task.msecs': 132}
