proyfinal/src/viki/013/experimentInOfficeAgust.take6.output/5e502ab6-adcd-49fd-b7e0-62bcb1b03a1d.als.out
Reading from standard input... Use '--help' for help.
============================[ Problem Statistics ]=============================
|                                                                             |
|  Number of variables:         69608                                         |
|  Number of clauses:          118081                                         |
|  Parse time:                   0.02 s                                       |
|                                                                             |
============================[ Search Statistics ]==============================
| Conflicts |          ORIGINAL         |          LEARNT          | Progress |
|           |    Vars  Clauses Literals |    Limit  Clauses Lit/Cl |          |
===============================================================================
===============================================================================
restarts              : 1
conflicts             : 21             (634 /sec)
decisions             : 7941           (0.00 % random) (239641 /sec)
propagations          : 37159          (1121375 /sec)
conflict literals     : 39             (0.00 % deleted)
Memory used           : 14.78 MB
CPU time              : 0.033137 s

UNSATISFIABLE
